proyfinal/src/viki/013/experimentInOfficeAgust.take6.output/b3684719-bfdc-4298-a913-7ccebb202b88.als.dat
{'cnf.clauses': '118081',
 'cnf.totvars': '69608',
 'conflict literals': '9',
 'conflicts': '6',
 'decisions': '3039',
 'memused.mb': '14.76',
 'outcome': 'UNSAT',
 'propagations': '23177',
 'restarts': '1',
 'solver.msecs': 34,
 'task.msecs': 79}
