proyfinal/src/viki/013/experimentInOfficeAgust.take6.output/b3684719-bfdc-4298-a913-7ccebb202b88.als.out
Reading from standard input... Use '--help' for help.
============================[ Problem Statistics ]=============================
|                                                                             |
|  Number of variables:         69608                                         |
|  Number of clauses:          118081                                         |
|  Parse time:                   0.03 s                                       |
|                                                                             |
============================[ Search Statistics ]==============================
| Conflicts |          ORIGINAL         |          LEARNT          | Progress |
|           |    Vars  Clauses Literals |    Limit  Clauses Lit/Cl |          |
===============================================================================
===============================================================================
restarts              : 1
conflicts             : 6              (174 /sec)
decisions             : 3039           (0.00 % random) (88335 /sec)
propagations          : 23177          (673691 /sec)
conflict literals     : 9              (0.00 % deleted)
Memory used           : 14.76 MB
CPU time              : 0.034403 s

UNSATISFIABLE
